unsat
(define-fun inv-f ((x Int) (y Int) (i Int) (j Int)) Bool (or (not (= i j)) (= x y)))
0.40user 0.00system 0:00.40elapsed 100%CPU (0avgtext+0avgdata 31424maxresident)k
0inputs+8outputs (0major+2602minor)pagefaults 0swaps
